
Log started (V11.0.0) Mon Apr 14 11:11:45 2008

Tried aggregator 1 time.
Reduced MIP has 540 rows, 20001 columns, and 40040 nonzeros.
Presolve time =    0.14 sec.
Clique table members: 500.
MIP emphasis: balance optimality and feasibility.
MIP search method: dynamic search.
Parallel mode: none, using 1 thread.
Root relaxation solution time =    0.61 sec.

        Nodes                                         Cuts/
   Node  Left     Objective  IInf  Best Integer     Best Node    ItCnt     Gap

*     0+    0                        25740.0000       37.8391     1082   99.85%
*     0+    0                           44.0000       37.8391     1082   14.00%
      0     0       38.0000    62       44.0000      Fract: 6     1107   13.64%
*     0+    0                           43.0000       38.0000     1107   11.63%
*     0+    0                           42.0000       38.0000     1107    9.52%

Repeating presolve.
Tried aggregator 1 time.
MIP Presolve eliminated 0 rows and 11756 columns.
Reduced MIP has 540 rows, 8245 columns, and 16528 nonzeros.
Tried aggregator 1 time.
Represolve time =    0.48 sec.
Clique table members: 933.
MIP emphasis: balance optimality and feasibility.
MIP search method: dynamic search.
Parallel mode: none, using 1 thread.
Root relaxation solution time =    0.22 sec.

        Nodes                                         Cuts/
   Node  Left     Objective  IInf  Best Integer     Best Node    ItCnt     Gap

      0     0       38.0000    74       42.0000       38.0000      944    9.52%
*     0+    0                           41.0000       38.0000      944    7.32%
      0     2       38.0000    74       41.0000       38.0000      944    7.32%
    100    96       39.0000    49       41.0000       38.0000     4866    7.32%
    200   188       40.0000    29       41.0000       38.0000     9450    7.32%
    300   282       40.0000    46       41.0000       38.0000    14226    7.32%
    400   362       40.0000    49       41.0000       38.0000    22448    7.32%
    500   446       40.0000    54       41.0000       38.0000    30040    7.32%
*   509+  300                           40.0000       38.0000    32915    5.00%
    600   319    infeasible             40.0000       38.0000    37894    5.00%
    700   336       39.0000    67       40.0000       38.0000    44945    5.00%
*   709+  129                           39.0000       38.0000    45618    2.56%

Cover cuts applied:  212
Mixed integer rounding cuts applied:  11
Gomory fractional cuts applied:  1

Solution pool: 7 solutions saved.

MIP - Integer optimal solution:  Objective = 3.9000000000e+001
Solution time =   57.86 sec.  Iterations = 75289  Nodes = 748 (75)


Incumbent solution
Variable Name           Solution Value
Cmax                         39.000000
X_1_15                        1.000000
X_2_38                        1.000000
X_3_2                         1.000000
X_4_15                        1.000000
X_5_7                         1.000000
X_6_30                        1.000000
X_7_5                         1.000000
X_8_15                        1.000000
X_9_34                        1.000000
X_10_15                       1.000000
X_11_40                       1.000000
X_12_22                       1.000000
X_13_5                        1.000000
X_14_33                       1.000000
X_15_26                       1.000000
X_16_9                        1.000000
X_17_2                        1.000000
X_18_9                        1.000000
X_19_30                       1.000000
X_20_26                       1.000000
X_21_38                       1.000000
X_22_19                       1.000000
X_23_10                       1.000000
X_24_9                        1.000000
X_25_3                        1.000000
X_26_23                       1.000000
X_27_39                       1.000000
X_28_6                        1.000000
X_29_37                       1.000000
X_30_11                       1.000000
X_31_2                        1.000000
X_32_28                       1.000000
X_33_32                       1.000000
X_34_40                       1.000000
X_35_8                        1.000000
X_36_17                       1.000000
X_37_25                       1.000000
X_38_32                       1.000000
X_39_20                       1.000000
X_40_33                       1.000000
X_41_21                       1.000000
X_42_34                       1.000000
X_43_7                        1.000000
X_44_15                       1.000000
X_45_15                       1.000000
X_46_13                       1.000000
X_47_6                        1.000000
X_48_35                       1.000000
X_49_35                       1.000000
X_50_31                       1.000000
X_51_17                       1.000000
X_52_6                        1.000000
X_53_24                       1.000000
X_54_9                        1.000000
X_55_31                       1.000000
X_56_18                       1.000000
X_57_19                       1.000000
X_58_29                       1.000000
X_59_29                       1.000000
X_60_35                       1.000000
X_61_28                       1.000000
X_62_35                       1.000000
X_63_27                       1.000000
X_64_13                       1.000000
X_65_17                       1.000000
X_66_6                        1.000000
X_67_40                       1.000000
X_68_9                        1.000000
X_69_11                       1.000000
X_70_33                       1.000000
X_71_29                       1.000000
X_72_4                        1.000000
X_73_4                        1.000000
X_74_40                       1.000000
X_75_9                        1.000000
X_76_27                       1.000000
X_77_16                       1.000000
X_78_13                       1.000000
X_79_9                        1.000000
X_80_38                       1.000000
X_81_28                       1.000000
X_82_33                       1.000000
X_83_12                       1.000000
X_84_20                       1.000000
X_85_37                       1.000000
X_86_30                       1.000000
X_87_24                       1.000000
X_88_28                       1.000000
X_89_18                       1.000000
X_90_21                       1.000000
X_91_36                       1.000000
X_92_20                       1.000000
X_93_26                       1.000000
X_94_12                       1.000000
X_95_23                       1.000000
X_96_20                       1.000000
X_97_27                       1.000000
X_98_2                        1.000000
X_99_30                       1.000000
X_100_19                      1.000000
X_101_2                       1.000000
X_102_32                      1.000000
X_103_32                      1.000000
X_104_19                      1.000000
X_105_18                      1.000000
X_106_27                      1.000000
X_107_23                      1.000000
X_108_21                      1.000000
X_109_1                       1.000000
X_110_23                      1.000000
X_111_4                       1.000000
X_112_12                      1.000000
X_113_16                      1.000000
X_114_40                      1.000000
X_115_22                      1.000000
X_116_14                      1.000000
X_117_17                      1.000000
X_118_14                      1.000000
X_119_27                      1.000000
X_120_7                       1.000000
X_121_14                      1.000000
X_122_10                      1.000000
X_123_31                      1.000000
X_124_3                       1.000000
X_125_1                       1.000000
X_126_8                       1.000000
X_127_23                      1.000000
X_128_34                      1.000000
X_129_35                      1.000000
X_130_29                      1.000000
X_131_20                      1.000000
X_132_40                      1.000000
X_133_38                      1.000000
X_134_10                      1.000000
X_135_18                      1.000000
X_136_22                      1.000000
X_137_39                      1.000000
X_138_35                      1.000000
X_139_37                      1.000000
X_140_19                      1.000000
X_141_21                      1.000000
X_142_6                       1.000000
X_143_30                      1.000000
X_144_5                       1.000000
X_145_21                      1.000000
X_146_11                      1.000000
X_147_27                      1.000000
X_148_8                       1.000000
X_149_10                      1.000000
X_150_4                       1.000000
X_151_25                      1.000000
X_152_37                      1.000000
X_153_11                      1.000000
X_154_10                      1.000000
X_155_31                      1.000000
X_156_13                      1.000000
X_157_39                      1.000000
X_158_32                      1.000000
X_159_22                      1.000000
X_160_40                      1.000000
X_161_28                      1.000000
X_162_1                       1.000000
X_163_17                      1.000000
X_164_3                       1.000000
X_165_17                      1.000000
X_166_13                      1.000000
X_167_2                       1.000000
X_168_37                      1.000000
X_169_29                      1.000000
X_170_24                      1.000000
X_171_6                       1.000000
X_172_14                      1.000000
X_173_17                      1.000000
X_174_31                      1.000000
X_175_13                      1.000000
X_176_13                      1.000000
X_177_30                      1.000000
X_178_9                       1.000000
X_179_5                       1.000000
X_180_20                      1.000000
X_181_40                      1.000000
X_182_37                      1.000000
X_183_35                      1.000000
X_184_39                      1.000000
X_185_26                      1.000000
X_186_3                       1.000000
X_187_16                      1.000000
X_188_25                      1.000000
X_189_8                       1.000000
X_190_14                      1.000000
X_191_23                      1.000000
X_192_38                      1.000000
X_193_31                      1.000000
X_194_5                       1.000000
X_195_11                      1.000000
X_196_36                      1.000000
X_197_22                      1.000000
X_198_15                      1.000000
X_199_31                      1.000000
X_200_28                      1.000000
X_201_27                      1.000000
X_202_13                      1.000000
X_203_2                       1.000000
X_204_9                       1.000000
X_205_25                      1.000000
X_206_25                      1.000000
X_207_2                       1.000000
X_208_5                       1.000000
X_209_33                      1.000000
X_210_38                      1.000000
X_211_28                      1.000000
X_212_20                      1.000000
X_213_37                      1.000000
X_214_27                      1.000000
X_215_13                      1.000000
X_216_7                       1.000000
X_217_21                      1.000000
X_218_1                       1.000000
X_219_39                      1.000000
X_220_37                      1.000000
X_221_23                      1.000000
X_222_14                      1.000000
X_223_15                      1.000000
X_224_38                      1.000000
X_225_4                       1.000000
X_226_5                       1.000000
X_227_20                      1.000000
X_228_17                      1.000000
X_229_10                      1.000000
X_230_39                      1.000000
X_231_31                      1.000000
X_232_6                       1.000000
X_233_7                       1.000000
X_234_26                      1.000000
X_235_40                      1.000000
X_236_18                      1.000000
X_237_17                      1.000000
X_238_16                      1.000000
X_239_26                      1.000000
X_240_32                      1.000000
X_241_25                      1.000000
X_242_40                      1.000000
X_243_5                       1.000000
X_244_34                      1.000000
X_245_35                      1.000000
X_246_17                      1.000000
X_247_31                      1.000000
X_248_39                      1.000000
X_249_34                      1.000000
X_250_17                      1.000000
X_251_19                      1.000000
X_252_1                       1.000000
X_253_3                       1.000000
X_254_8                       1.000000
X_255_22                      1.000000
X_256_4                       1.000000
X_257_36                      1.000000
X_258_40                      1.000000
X_259_40                      1.000000
X_260_30                      1.000000
X_261_5                       1.000000
X_262_20                      1.000000
X_263_36                      1.000000
X_264_28                      1.000000
X_265_16                      1.000000
X_266_10                      1.000000
X_267_27                      1.000000
X_268_19                      1.000000
X_269_38                      1.000000
X_270_33                      1.000000
X_271_27                      1.000000
X_272_12                      1.000000
X_273_1                       1.000000
X_274_27                      1.000000
X_275_29                      1.000000
X_276_26                      1.000000
X_277_15                      1.000000
X_278_20                      1.000000
X_279_11                      1.000000
X_280_8                       1.000000
X_281_10                      1.000000
X_282_40                      1.000000
X_283_24                      1.000000
X_284_21                      1.000000
X_285_2                       1.000000
X_286_29                      1.000000
X_287_10                      1.000000
X_288_4                       1.000000
X_289_27                      1.000000
X_290_2                       1.000000
X_291_27                      1.000000
X_292_36                      1.000000
X_293_8                       1.000000
X_294_5                       1.000000
X_295_15                      1.000000
X_296_36                      1.000000
X_297_21                      1.000000
X_298_8                       1.000000
X_299_3                       1.000000
X_300_33                      1.000000
X_301_13                      1.000000
X_302_12                      1.000000
X_303_31                      1.000000
X_304_23                      1.000000
X_305_22                      1.000000
X_306_39                      1.000000
X_307_1                       1.000000
X_308_3                       1.000000
X_309_19                      1.000000
X_310_11                      1.000000
X_311_9                       1.000000
X_312_33                      1.000000
X_313_26                      1.000000
X_314_34                      1.000000
X_315_22                      1.000000
X_316_32                      1.000000
X_317_39                      1.000000
X_318_7                       1.000000
X_319_5                       1.000000
X_320_1                       1.000000
X_321_13                      1.000000
X_322_31                      1.000000
X_323_18                      1.000000
X_324_34                      1.000000
X_325_7                       1.000000
X_326_26                      1.000000
X_327_33                      1.000000
X_328_15                      1.000000
X_329_7                       1.000000
X_330_28                      1.000000
X_331_27                      1.000000
X_332_20                      1.000000
X_333_23                      1.000000
X_334_13                      1.000000
X_335_13                      1.000000
X_336_18                      1.000000
X_337_31                      1.000000
X_338_19                      1.000000
X_339_8                       1.000000
X_340_9                       1.000000
X_341_15                      1.000000
X_342_7                       1.000000
X_343_11                      1.000000
X_344_11                      1.000000
X_345_29                      1.000000
X_346_37                      1.000000
X_347_39                      1.000000
X_348_22                      1.000000
X_349_32                      1.000000
X_350_32                      1.000000
X_351_14                      1.000000
X_352_21                      1.000000
X_353_18                      1.000000
X_354_22                      1.000000
X_355_1                       1.000000
X_356_18                      1.000000
X_357_25                      1.000000
X_358_36                      1.000000
X_359_17                      1.000000
X_360_23                      1.000000
X_361_1                       1.000000
X_362_25                      1.000000
X_363_13                      1.000000
X_364_9                       1.000000
X_365_12                      1.000000
X_366_21                      1.000000
X_367_14                      1.000000
X_368_20                      1.000000
X_369_40                      1.000000
X_370_11                      1.000000
X_371_11                      1.000000
X_372_36                      1.000000
X_373_35                      1.000000
X_374_21                      1.000000
X_375_6                       1.000000
X_376_38                      1.000000
X_377_10                      1.000000
X_378_35                      1.000000
X_379_14                      1.000000
X_380_19                      1.000000
X_381_7                       1.000000
X_382_3                       1.000000
X_383_18                      1.000000
X_384_37                      1.000000
X_385_5                       1.000000
X_386_12                      1.000000
X_387_16                      1.000000
X_388_17                      1.000000
X_389_38                      1.000000
X_390_4                       1.000000
X_391_37                      1.000000
X_392_10                      1.000000
X_393_25                      1.000000
X_394_28                      1.000000
X_395_34                      1.000000
X_396_30                      1.000000
X_397_30                      1.000000
X_398_12                      1.000000
X_399_26                      1.000000
X_400_13                      1.000000
X_401_39                      1.000000
X_402_29                      1.000000
X_403_38                      1.000000
X_404_33                      1.000000
X_405_29                      1.000000
X_406_2                       1.000000
X_407_8                       1.000000
X_408_25                      1.000000
X_409_25                      1.000000
X_410_19                      1.000000
X_411_16                      1.000000
X_412_11                      1.000000
X_413_4                       1.000000
X_414_12                      1.000000
X_415_11                      1.000000
X_416_36                      1.000000
X_417_15                      1.000000
X_418_24                      1.000000
X_419_17                      1.000000
X_420_7                       1.000000
X_421_12                      1.000000
X_422_18                      1.000000
X_423_25                      1.000000
X_424_2                       1.000000
X_425_28                      1.000000
X_426_1                       1.000000
X_427_17                      1.000000
X_428_27                      1.000000
X_429_4                       1.000000
X_430_11                      1.000000
X_431_7                       1.000000
X_432_39                      1.000000
X_433_24                      1.000000
X_434_21                      1.000000
X_435_39                      1.000000
X_436_24                      1.000000
X_437_8                       1.000000
X_438_19                      1.000000
X_439_5                       1.000000
X_440_18                      1.000000
X_441_36                      1.000000
X_442_34                      1.000000
X_443_32                      1.000000
X_444_23                      1.000000
X_445_39                      1.000000
X_446_2                       1.000000
X_447_10                      1.000000
X_448_34                      1.000000
X_449_22                      1.000000
X_450_13                      1.000000
X_451_25                      1.000000
X_452_28                      1.000000
X_453_11                      1.000000
X_454_4                       1.000000
X_455_18                      1.000000
X_456_12                      1.000000
X_457_23                      1.000000
X_458_26                      1.000000
X_459_27                      1.000000
X_460_36                      1.000000
X_461_31                      1.000000
X_462_29                      1.000000
X_463_18                      1.000000
X_464_9                       1.000000
X_465_12                      1.000000
X_466_27                      1.000000
X_467_34                      1.000000
X_468_31                      1.000000
X_469_7                       1.000000
X_470_28                      1.000000
X_471_9                       1.000000
X_472_24                      1.000000
X_473_33                      1.000000
X_474_21                      1.000000
X_475_4                       1.000000
X_476_9                       1.000000
X_477_36                      1.000000
X_478_36                      1.000000
X_479_35                      1.000000
X_480_26                      1.000000
X_481_30                      1.000000
X_482_6                       1.000000
X_483_15                      1.000000
X_484_12                      1.000000
X_485_27                      1.000000
X_486_23                      1.000000
X_487_18                      1.000000
X_488_3                       1.000000
X_489_16                      1.000000
X_490_37                      1.000000
X_491_3                       1.000000
X_492_40                      1.000000
X_493_15                      1.000000
X_494_31                      1.000000
X_495_20                      1.000000
X_496_29                      1.000000
X_497_15                      1.000000
X_498_40                      1.000000
X_499_18                      1.000000
X_500_9                       1.000000
All other variables in the range 1-20001 are 0.
